p wcnf 110 55 56 
1 103 -19 0 
1 -80 -27 0 
1 65 96 0 
1 43 11 0 
1 -88 -41 0 
1 64 31 0 
1 -103 -70 0 
1 -86 91 0 
1 58 -61 0 
1 42 -106 0 
1 107 -1 0 
1 18 -66 0 
1 108 96 0 
1 -94 58 0 
1 98 66 0 
1 49 100 0 
1 -2 -39 0 
1 -16 63 0 
1 -22 81 0 
1 -57 44 0 
1 88 29 0 
1 -84 -90 0 
1 -52 30 0 
1 -11 -38 0 
1 5 2 0 
1 69 20 0 
1 -84 -12 0 
1 -110 -68 0 
1 108 -52 0 
1 83 103 0 
1 32 -66 0 
1 1 84 0 
1 90 53 0 
1 90 -42 0 
1 53 77 0 
1 43 -95 0 
1 110 92 0 
1 -33 -29 0 
1 -105 40 0 
1 75 -65 0 
1 -59 11 0 
1 -58 84 0 
1 6 19 0 
1 19 83 0 
1 27 12 0 
1 -77 -14 0 
1 -67 13 0 
1 89 -96 0 
1 -30 -110 0 
1 -48 -29 0 
1 -96 -53 0 
1 19 -41 0 
1 52 103 0 
1 -54 -79 0 
1 96 -59 0 
